results/res_prop_muc/res_Cimatti_mathsat_cores/QF_UF/PEQ019_size4.smt
(benchmark PEQ019_size4.smt
:source {
CADE ATP System competition. See http://www.cs.miami.edu/~tptp/CASC
 for more information. 

This benchmark was obtained by trying to find a finite model of a first-order 
formula (Albert Oliveras).
}
:status unsat
:category { crafted }
:difficulty { 0 }
:logic QF_UF
:extrafuns ((f1 U U U))
:extrafuns ((c2 U))
:extrafuns ((c3 U))
:extrafuns ((c_0 U))
:extrafuns ((c_1 U))
:extrafuns ((c_2 U))
:extrafuns ((c_3 U))
:formula 
( and 
( distinct c_0 c_1 c_2 c_3 )(or (= c_0 c_0) (not (= (f1 c_0 c_0) (f1 c_0 c_0))) )(or (= c_0 c_0) (not (= (f1 c_0 c_1) (f1 c_0 c_1))) )(or (= c_0 c_0) (not (= (f1 c_0 c_2) (f1 c_0 c_2))) )(or (= c_0 c_0) (not (= (f1 c_0 c_3) (f1 c_0 c_3))) )(or (= c_0 c_1) (not (= (f1 c_0 c_0) (f1 c_1 c_0))) )(or (= c_0 c_1) (not (= (f1 c_0 c_1) (f1 c_1 c_1))) )(or (= c_0 c_1) (not (= (f1 c_0 c_2) (f1 c_1 c_2))) )(or (= c_0 c_1) (not (= (f1 c_0 c_3) (f1 c_1 c_3))) )(or (= c_0 c_2) (not (= (f1 c_0 c_0) (f1 c_2 c_0))) )(or (= c_0 c_2) (not (= (f1 c_0 c_1) (f1 c_2 c_1))) )(or (= c_0 c_2) (not (= (f1 c_0 c_2) (f1 c_2 c_2))) )(or (= c_0 c_2) (not (= (f1 c_0 c_3) (f1 c_2 c_3))) )(or (= c_0 c_3) (not (= (f1 c_0 c_0) (f1 c_3 c_0))) )(or (= c_0 c_3) (not (= (f1 c_0 c_1) (f1 c_3 c_1))) )(or (= c_0 c_3) (not (= (f1 c_0 c_2) (f1 c_3 c_2))) )(or (= c_0 c_3) (not (= (f1 c_0 c_3) (f1 c_3 c_3))) )(or (= c_1 c_0) (not (= (f1 c_1 c_0) (f1 c_0 c_0))) )(or (= c_1 c_0) (not (= (f1 c_1 c_1) (f1 c_0 c_1))) )(or (= c_1 c_0) (not (= (f1 c_1 c_2) (f1 c_0 c_2))) )(or (= c_1 c_0) (not (= (f1 c_1 c_3) (f1 c_0 c_3))) )(or (= c_1 c_1) (not (= (f1 c_1 c_0) (f1 c_1 c_0))) )(or (= c_1 c_1) (not (= (f1 c_1 c_1) (f1 c_1 c_1))) )(or (= c_1 c_1) (not (= (f1 c_1 c_2) (f1 c_1 c_2))) )(or (= c_1 c_1) (not (= (f1 c_1 c_3) (f1 c_1 c_3))) )(or (= c_1 c_2) (not (= (f1 c_1 c_0) (f1 c_2 c_0))) )(or (= c_1 c_2) (not (= (f1 c_1 c_1) (f1 c_2 c_1))) )(or (= c_1 c_2) (not (= (f1 c_1 c_2) (f1 c_2 c_2))) )(or (= c_1 c_2) (not (= (f1 c_1 c_3) (f1 c_2 c_3))) )(or (= c_1 c_3) (not (= (f1 c_1 c_0) (f1 c_3 c_0))) )(or (= c_1 c_3) (not (= (f1 c_1 c_1) (f1 c_3 c_1))) )(or (= c_1 c_3) (not (= (f1 c_1 c_2) (f1 c_3 c_2))) )(or (= c_1 c_3) (not (= (f1 c_1 c_3) (f1 c_3 c_3))) )(or (= c_2 c_0) (not (= (f1 c_2 c_0) (f1 c_0 c_0))) )(or (= c_2 c_0) (not (= (f1 c_2 c_1) (f1 c_0 c_1))) )(or (= c_2 c_0) (not (= (f1 c_2 c_2) (f1 c_0 c_2))) )(or (= c_2 c_0) (not (= (f1 c_2 c_3) (f1 c_0 c_3))) )(or (= c_2 c_1) (not (= (f1 c_2 c_0) (f1 c_1 c_0))) )(or (= c_2 c_1) (not (= (f1 c_2 c_1) (f1 c_1 c_1))) )(or (= c_2 c_1) (not (= (f1 c_2 c_2) (f1 c_1 c_2))) )(or (= c_2 c_1) (not (= (f1 c_2 c_3) (f1 c_1 c_3))) )(or (= c_2 c_2) (not (= (f1 c_2 c_0) (f1 c_2 c_0))) )(or (= c_2 c_2) (not (= (f1 c_2 c_1) (f1 c_2 c_1))) )(or (= c_2 c_2) (not (= (f1 c_2 c_2) (f1 c_2 c_2))) )(or (= c_2 c_2) (not (= (f1 c_2 c_3) (f1 c_2 c_3))) )(or (= c_2 c_3) (not (= (f1 c_2 c_0) (f1 c_3 c_0))) )(or (= c_2 c_3) (not (= (f1 c_2 c_1) (f1 c_3 c_1))) )(or (= c_2 c_3) (not (= (f1 c_2 c_2) (f1 c_3 c_2))) )(or (= c_2 c_3) (not (= (f1 c_2 c_3) (f1 c_3 c_3))) )(or (= c_3 c_0) (not (= (f1 c_3 c_0) (f1 c_0 c_0))) )(or (= c_3 c_0) (not (= (f1 c_3 c_1) (f1 c_0 c_1))) )(or (= c_3 c_0) (not (= (f1 c_3 c_2) (f1 c_0 c_2))) )(or (= c_3 c_0) (not (= (f1 c_3 c_3) (f1 c_0 c_3))) )(or (= c_3 c_1) (not (= (f1 c_3 c_0) (f1 c_1 c_0))) )(or (= c_3 c_1) (not (= (f1 c_3 c_1) (f1 c_1 c_1))) )(or (= c_3 c_1) (not (= (f1 c_3 c_2) (f1 c_1 c_2))) )(or (= c_3 c_1) (not (= (f1 c_3 c_3) (f1 c_1 c_3))) )(or (= c_3 c_2) (not (= (f1 c_3 c_0) (f1 c_2 c_0))) )(or (= c_3 c_2) (not (= (f1 c_3 c_1) (f1 c_2 c_1))) )(or (= c_3 c_2) (not (= (f1 c_3 c_2) (f1 c_2 c_2))) )(or (= c_3 c_2) (not (= (f1 c_3 c_3) (f1 c_2 c_3))) )(or (= c_3 c_3) (not (= (f1 c_3 c_0) (f1 c_3 c_0))) )(or (= c_3 c_3) (not (= (f1 c_3 c_1) (f1 c_3 c_1))) )(or (= c_3 c_3) (not (= (f1 c_3 c_2) (f1 c_3 c_2))) )(or (= c_3 c_3) (not (= (f1 c_3 c_3) (f1 c_3 c_3))) )(= (f1 c_0 (f1 c_0 (f1 c_0 (f1 c_0 (f1 c_0 c_0))))) (f1 c_0 (f1 c_0 (f1 c_0 (f1 c_0 (f1 c_0 c_0)))))) (= (f1 c_0 (f1 c_1 (f1 c_1 (f1 c_1 (f1 c_0 c_1))))) (f1 c_1 (f1 c_1 (f1 c_1 (f1 c_1 (f1 c_0 c_0)))))) (= (f1 c_0 (f1 c_2 (f1 c_2 (f1 c_2 (f1 c_0 c_2))))) (f1 c_2 (f1 c_2 (f1 c_2 (f1 c_2 (f1 c_0 c_0)))))) (= (f1 c_0 (f1 c_3 (f1 c_3 (f1 c_3 (f1 c_0 c_3))))) (f1 c_3 (f1 c_3 (f1 c_3 (f1 c_3 (f1 c_0 c_0)))))) (= (f1 c_1 (f1 c_0 (f1 c_0 (f1 c_0 (f1 c_1 c_0))))) (f1 c_0 (f1 c_0 (f1 c_0 (f1 c_0 (f1 c_1 c_1)))))) (= (f1 c_1 (f1 c_1 (f1 c_1 (f1 c_1 (f1 c_1 c_1))))) (f1 c_1 (f1 c_1 (f1 c_1 (f1 c_1 (f1 c_1 c_1)))))) (= (f1 c_1 (f1 c_2 (f1 c_2 (f1 c_2 (f1 c_1 c_2))))) (f1 c_2 (f1 c_2 (f1 c_2 (f1 c_2 (f1 c_1 c_1)))))) (= (f1 c_1 (f1 c_3 (f1 c_3 (f1 c_3 (f1 c_1 c_3))))) (f1 c_3 (f1 c_3 (f1 c_3 (f1 c_3 (f1 c_1 c_1)))))) (= (f1 c_2 (f1 c_0 (f1 c_0 (f1 c_0 (f1 c_2 c_0))))) (f1 c_0 (f1 c_0 (f1 c_0 (f1 c_0 (f1 c_2 c_2)))))) (= (f1 c_2 (f1 c_1 (f1 c_1 (f1 c_1 (f1 c_2 c_1))))) (f1 c_1 (f1 c_1 (f1 c_1 (f1 c_1 (f1 c_2 c_2)))))) (= (f1 c_2 (f1 c_2 (f1 c_2 (f1 c_2 (f1 c_2 c_2))))) (f1 c_2 (f1 c_2 (f1 c_2 (f1 c_2 (f1 c_2 c_2)))))) (= (f1 c_2 (f1 c_3 (f1 c_3 (f1 c_3 (f1 c_2 c_3))))) (f1 c_3 (f1 c_3 (f1 c_3 (f1 c_3 (f1 c_2 c_2)))))) (= (f1 c_3 (f1 c_0 (f1 c_0 (f1 c_0 (f1 c_3 c_0))))) (f1 c_0 (f1 c_0 (f1 c_0 (f1 c_0 (f1 c_3 c_3)))))) (= (f1 c_3 (f1 c_1 (f1 c_1 (f1 c_1 (f1 c_3 c_1))))) (f1 c_1 (f1 c_1 (f1 c_1 (f1 c_1 (f1 c_3 c_3)))))) (= (f1 c_3 (f1 c_2 (f1 c_2 (f1 c_2 (f1 c_3 c_2))))) (f1 c_2 (f1 c_2 (f1 c_2 (f1 c_2 (f1 c_3 c_3)))))) (= (f1 c_3 (f1 c_3 (f1 c_3 (f1 c_3 (f1 c_3 c_3))))) (f1 c_3 (f1 c_3 (f1 c_3 (f1 c_3 (f1 c_3 c_3)))))) (= (f1 (f1 c_0 c_0) c_0) (f1 c_0 (f1 c_0 c_0))) (= (f1 (f1 c_0 c_0) c_1) (f1 c_0 (f1 c_0 c_1))) (= (f1 (f1 c_0 c_0) c_2) (f1 c_0 (f1 c_0 c_2))) (= (f1 (f1 c_0 c_0) c_3) (f1 c_0 (f1 c_0 c_3))) (= (f1 (f1 c_0 c_1) c_0) (f1 c_0 (f1 c_1 c_0))) (= (f1 (f1 c_0 c_1) c_1) (f1 c_0 (f1 c_1 c_1))) (= (f1 (f1 c_0 c_1) c_2) (f1 c_0 (f1 c_1 c_2))) (= (f1 (f1 c_0 c_1) c_3) (f1 c_0 (f1 c_1 c_3))) (= (f1 (f1 c_0 c_2) c_0) (f1 c_0 (f1 c_2 c_0))) (= (f1 (f1 c_0 c_2) c_1) (f1 c_0 (f1 c_2 c_1))) (= (f1 (f1 c_0 c_2) c_2) (f1 c_0 (f1 c_2 c_2))) (= (f1 (f1 c_0 c_2) c_3) (f1 c_0 (f1 c_2 c_3))) (= (f1 (f1 c_0 c_3) c_0) (f1 c_0 (f1 c_3 c_0))) (= (f1 (f1 c_0 c_3) c_1) (f1 c_0 (f1 c_3 c_1))) (= (f1 (f1 c_0 c_3) c_2) (f1 c_0 (f1 c_3 c_2))) (= (f1 (f1 c_0 c_3) c_3) (f1 c_0 (f1 c_3 c_3))) (= (f1 (f1 c_1 c_0) c_0) (f1 c_1 (f1 c_0 c_0))) (= (f1 (f1 c_1 c_0) c_1) (f1 c_1 (f1 c_0 c_1))) (= (f1 (f1 c_1 c_0) c_2) (f1 c_1 (f1 c_0 c_2))) (= (f1 (f1 c_1 c_0) c_3) (f1 c_1 (f1 c_0 c_3))) (= (f1 (f1 c_1 c_1) c_0) (f1 c_1 (f1 c_1 c_0))) (= (f1 (f1 c_1 c_1) c_1) (f1 c_1 (f1 c_1 c_1))) (= (f1 (f1 c_1 c_1) c_2) (f1 c_1 (f1 c_1 c_2))) (= (f1 (f1 c_1 c_1) c_3) (f1 c_1 (f1 c_1 c_3))) (= (f1 (f1 c_1 c_2) c_0) (f1 c_1 (f1 c_2 c_0))) (= (f1 (f1 c_1 c_2) c_1) (f1 c_1 (f1 c_2 c_1))) (= (f1 (f1 c_1 c_2) c_2) (f1 c_1 (f1 c_2 c_2))) (= (f1 (f1 c_1 c_2) c_3) (f1 c_1 (f1 c_2 c_3))) (= (f1 (f1 c_1 c_3) c_0) (f1 c_1 (f1 c_3 c_0))) (= (f1 (f1 c_1 c_3) c_1) (f1 c_1 (f1 c_3 c_1))) (= (f1 (f1 c_1 c_3) c_2) (f1 c_1 (f1 c_3 c_2))) (= (f1 (f1 c_1 c_3) c_3) (f1 c_1 (f1 c_3 c_3))) (= (f1 (f1 c_2 c_0) c_0) (f1 c_2 (f1 c_0 c_0))) (= (f1 (f1 c_2 c_0) c_1) (f1 c_2 (f1 c_0 c_1))) (= (f1 (f1 c_2 c_0) c_2) (f1 c_2 (f1 c_0 c_2))) (= (f1 (f1 c_2 c_0) c_3) (f1 c_2 (f1 c_0 c_3))) (= (f1 (f1 c_2 c_1) c_0) (f1 c_2 (f1 c_1 c_0))) (= (f1 (f1 c_2 c_1) c_1) (f1 c_2 (f1 c_1 c_1))) (= (f1 (f1 c_2 c_1) c_2) (f1 c_2 (f1 c_1 c_2))) (= (f1 (f1 c_2 c_1) c_3) (f1 c_2 (f1 c_1 c_3))) (= (f1 (f1 c_2 c_2) c_0) (f1 c_2 (f1 c_2 c_0))) (= (f1 (f1 c_2 c_2) c_1) (f1 c_2 (f1 c_2 c_1))) (= (f1 (f1 c_2 c_2) c_2) (f1 c_2 (f1 c_2 c_2))) (= (f1 (f1 c_2 c_2) c_3) (f1 c_2 (f1 c_2 c_3))) (= (f1 (f1 c_2 c_3) c_0) (f1 c_2 (f1 c_3 c_0))) (= (f1 (f1 c_2 c_3) c_1) (f1 c_2 (f1 c_3 c_1))) (= (f1 (f1 c_2 c_3) c_2) (f1 c_2 (f1 c_3 c_2))) (= (f1 (f1 c_2 c_3) c_3) (f1 c_2 (f1 c_3 c_3))) (= (f1 (f1 c_3 c_0) c_0) (f1 c_3 (f1 c_0 c_0))) (= (f1 (f1 c_3 c_0) c_1) (f1 c_3 (f1 c_0 c_1))) (= (f1 (f1 c_3 c_0) c_2) (f1 c_3 (f1 c_0 c_2))) (= (f1 (f1 c_3 c_0) c_3) (f1 c_3 (f1 c_0 c_3))) (= (f1 (f1 c_3 c_1) c_0) (f1 c_3 (f1 c_1 c_0))) (= (f1 (f1 c_3 c_1) c_1) (f1 c_3 (f1 c_1 c_1))) (= (f1 (f1 c_3 c_1) c_2) (f1 c_3 (f1 c_1 c_2))) (= (f1 (f1 c_3 c_1) c_3) (f1 c_3 (f1 c_1 c_3))) (= (f1 (f1 c_3 c_2) c_0) (f1 c_3 (f1 c_2 c_0))) (= (f1 (f1 c_3 c_2) c_1) (f1 c_3 (f1 c_2 c_1))) (= (f1 (f1 c_3 c_2) c_2) (f1 c_3 (f1 c_2 c_2))) (= (f1 (f1 c_3 c_2) c_3) (f1 c_3 (f1 c_2 c_3))) (= (f1 (f1 c_3 c_3) c_0) (f1 c_3 (f1 c_3 c_0))) (= (f1 (f1 c_3 c_3) c_1) (f1 c_3 (f1 c_3 c_1))) (= (f1 (f1 c_3 c_3) c_2) (f1 c_3 (f1 c_3 c_2))) (= (f1 (f1 c_3 c_3) c_3) (f1 c_3 (f1 c_3 c_3))) (not (= (f1 c2 (f1 c3 (f1 c2 (f1 c2 (f1 c2 c3))))) (f1 c3 (f1 c3 (f1 c2 (f1 c2 (f1 c2 c2))))))) (or (= c_0 c_0) (not (= (f1 c_0 c_0) (f1 c_0 c_0))) )(or (= c_0 c_0) (not (= (f1 c_1 c_0) (f1 c_1 c_0))) )(or (= c_0 c_0) (not (= (f1 c_2 c_0) (f1 c_2 c_0))) )(or (= c_0 c_0) (not (= (f1 c_3 c_0) (f1 c_3 c_0))) )(or (= c_0 c_1) (not (= (f1 c_0 c_0) (f1 c_0 c_1))) )(or (= c_0 c_1) (not (= (f1 c_1 c_0) (f1 c_1 c_1))) )(or (= c_0 c_1) (not (= (f1 c_2 c_0) (f1 c_2 c_1))) )(or (= c_0 c_1) (not (= (f1 c_3 c_0) (f1 c_3 c_1))) )(or (= c_0 c_2) (not (= (f1 c_0 c_0) (f1 c_0 c_2))) )(or (= c_0 c_2) (not (= (f1 c_1 c_0) (f1 c_1 c_2))) )(or (= c_0 c_2) (not (= (f1 c_2 c_0) (f1 c_2 c_2))) )(or (= c_0 c_2) (not (= (f1 c_3 c_0) (f1 c_3 c_2))) )(or (= c_0 c_3) (not (= (f1 c_0 c_0) (f1 c_0 c_3))) )(or (= c_0 c_3) (not (= (f1 c_1 c_0) (f1 c_1 c_3))) )(or (= c_0 c_3) (not (= (f1 c_2 c_0) (f1 c_2 c_3))) )(or (= c_0 c_3) (not (= (f1 c_3 c_0) (f1 c_3 c_3))) )(or (= c_1 c_0) (not (= (f1 c_0 c_1) (f1 c_0 c_0))) )(or (= c_1 c_0) (not (= (f1 c_1 c_1) (f1 c_1 c_0))) )(or (= c_1 c_0) (not (= (f1 c_2 c_1) (f1 c_2 c_0))) )(or (= c_1 c_0) (not (= (f1 c_3 c_1) (f1 c_3 c_0))) )(or (= c_1 c_1) (not (= (f1 c_0 c_1) (f1 c_0 c_1))) )(or (= c_1 c_1) (not (= (f1 c_1 c_1) (f1 c_1 c_1))) )(or (= c_1 c_1) (not (= (f1 c_2 c_1) (f1 c_2 c_1))) )(or (= c_1 c_1) (not (= (f1 c_3 c_1) (f1 c_3 c_1))) )(or (= c_1 c_2) (not (= (f1 c_0 c_1) (f1 c_0 c_2))) )(or (= c_1 c_2) (not (= (f1 c_1 c_1) (f1 c_1 c_2))) )(or (= c_1 c_2) (not (= (f1 c_2 c_1) (f1 c_2 c_2))) )(or (= c_1 c_2) (not (= (f1 c_3 c_1) (f1 c_3 c_2))) )(or (= c_1 c_3) (not (= (f1 c_0 c_1) (f1 c_0 c_3))) )(or (= c_1 c_3) (not (= (f1 c_1 c_1) (f1 c_1 c_3))) )(or (= c_1 c_3) (not (= (f1 c_2 c_1) (f1 c_2 c_3))) )(or (= c_1 c_3) (not (= (f1 c_3 c_1) (f1 c_3 c_3))) )(or (= c_2 c_0) (not (= (f1 c_0 c_2) (f1 c_0 c_0))) )(or (= c_2 c_0) (not (= (f1 c_1 c_2) (f1 c_1 c_0))) )(or (= c_2 c_0) (not (= (f1 c_2 c_2) (f1 c_2 c_0))) )(or (= c_2 c_0) (not (= (f1 c_3 c_2) (f1 c_3 c_0))) )(or (= c_2 c_1) (not (= (f1 c_0 c_2) (f1 c_0 c_1))) )(or (= c_2 c_1) (not (= (f1 c_1 c_2) (f1 c_1 c_1))) )(or (= c_2 c_1) (not (= (f1 c_2 c_2) (f1 c_2 c_1))) )(or (= c_2 c_1) (not (= (f1 c_3 c_2) (f1 c_3 c_1))) )(or (= c_2 c_2) (not (= (f1 c_0 c_2) (f1 c_0 c_2))) )(or (= c_2 c_2) (not (= (f1 c_1 c_2) (f1 c_1 c_2))) )(or (= c_2 c_2) (not (= (f1 c_2 c_2) (f1 c_2 c_2))) )(or (= c_2 c_2) (not (= (f1 c_3 c_2) (f1 c_3 c_2))) )(or (= c_2 c_3) (not (= (f1 c_0 c_2) (f1 c_0 c_3))) )(or (= c_2 c_3) (not (= (f1 c_1 c_2) (f1 c_1 c_3))) )(or (= c_2 c_3) (not (= (f1 c_2 c_2) (f1 c_2 c_3))) )(or (= c_2 c_3) (not (= (f1 c_3 c_2) (f1 c_3 c_3))) )(or (= c_3 c_0) (not (= (f1 c_0 c_3) (f1 c_0 c_0))) )(or (= c_3 c_0) (not (= (f1 c_1 c_3) (f1 c_1 c_0))) )(or (= c_3 c_0) (not (= (f1 c_2 c_3) (f1 c_2 c_0))) )(or (= c_3 c_0) (not (= (f1 c_3 c_3) (f1 c_3 c_0))) )(or (= c_3 c_1) (not (= (f1 c_0 c_3) (f1 c_0 c_1))) )(or (= c_3 c_1) (not (= (f1 c_1 c_3) (f1 c_1 c_1))) )(or (= c_3 c_1) (not (= (f1 c_2 c_3) (f1 c_2 c_1))) )(or (= c_3 c_1) (not (= (f1 c_3 c_3) (f1 c_3 c_1))) )(or (= c_3 c_2) (not (= (f1 c_0 c_3) (f1 c_0 c_2))) )(or (= c_3 c_2) (not (= (f1 c_1 c_3) (f1 c_1 c_2))) )(or (= c_3 c_2) (not (= (f1 c_2 c_3) (f1 c_2 c_2))) )(or (= c_3 c_2) (not (= (f1 c_3 c_3) (f1 c_3 c_2))) )(or (= c_3 c_3) (not (= (f1 c_0 c_3) (f1 c_0 c_3))) )(or (= c_3 c_3) (not (= (f1 c_1 c_3) (f1 c_1 c_3))) )(or (= c_3 c_3) (not (= (f1 c_2 c_3) (f1 c_2 c_3))) )(or (= c_3 c_3) (not (= (f1 c_3 c_3) (f1 c_3 c_3))) )(or (= (f1 c_0 c_0) c_0)(= (f1 c_0 c_0) c_1)(= (f1 c_0 c_0) c_2)(= (f1 c_0 c_0) c_3))(or (= (f1 c_0 c_1) c_0)(= (f1 c_0 c_1) c_1)(= (f1 c_0 c_1) c_2)(= (f1 c_0 c_1) c_3))(or (= (f1 c_0 c_2) c_0)(= (f1 c_0 c_2) c_1)(= (f1 c_0 c_2) c_2)(= (f1 c_0 c_2) c_3))(or (= (f1 c_0 c_3) c_0)(= (f1 c_0 c_3) c_1)(= (f1 c_0 c_3) c_2)(= (f1 c_0 c_3) c_3))(or (= (f1 c_1 c_0) c_0)(= (f1 c_1 c_0) c_1)(= (f1 c_1 c_0) c_2)(= (f1 c_1 c_0) c_3))(or (= (f1 c_1 c_1) c_0)(= (f1 c_1 c_1) c_1)(= (f1 c_1 c_1) c_2)(= (f1 c_1 c_1) c_3))(or (= (f1 c_1 c_2) c_0)(= (f1 c_1 c_2) c_1)(= (f1 c_1 c_2) c_2)(= (f1 c_1 c_2) c_3))(or (= (f1 c_1 c_3) c_0)(= (f1 c_1 c_3) c_1)(= (f1 c_1 c_3) c_2)(= (f1 c_1 c_3) c_3))(or (= (f1 c_2 c_0) c_0)(= (f1 c_2 c_0) c_1)(= (f1 c_2 c_0) c_2)(= (f1 c_2 c_0) c_3))(or (= (f1 c_2 c_1) c_0)(= (f1 c_2 c_1) c_1)(= (f1 c_2 c_1) c_2)(= (f1 c_2 c_1) c_3))(or (= (f1 c_2 c_2) c_0)(= (f1 c_2 c_2) c_1)(= (f1 c_2 c_2) c_2)(= (f1 c_2 c_2) c_3))(or (= (f1 c_2 c_3) c_0)(= (f1 c_2 c_3) c_1)(= (f1 c_2 c_3) c_2)(= (f1 c_2 c_3) c_3))(or (= (f1 c_3 c_0) c_0)(= (f1 c_3 c_0) c_1)(= (f1 c_3 c_0) c_2)(= (f1 c_3 c_0) c_3))(or (= (f1 c_3 c_1) c_0)(= (f1 c_3 c_1) c_1)(= (f1 c_3 c_1) c_2)(= (f1 c_3 c_1) c_3))(or (= (f1 c_3 c_2) c_0)(= (f1 c_3 c_2) c_1)(= (f1 c_3 c_2) c_2)(= (f1 c_3 c_2) c_3))(or (= (f1 c_3 c_3) c_0)(= (f1 c_3 c_3) c_1)(= (f1 c_3 c_3) c_2)(= (f1 c_3 c_3) c_3))(or (= c2 c_0)(= c2 c_1)(= c2 c_2)(= c2 c_3))(or (= c3 c_0)(= c3 c_1)(= c3 c_2)(= c3 c_3))))
