results/res_prop_muc/res_Cimatti_mathsat_cores/QF_UF/PEQ019_size4.smt.smt2.out

real	0m0.159s
user	0m0.057s
sys	0m0.006s
